(set-logic QF_LIA)
(set-info :ran/ran2.smt2)
(set-info :smt-lib-version 2.0)
(declare-fun x1 () Int)
(declare-fun x2 () Int)
(declare-fun x3 () Int)
(declare-fun x4 () Int)
(assert (<= (+ (* 6 x1) (* 0 x2) (* 7 x3) (* 3 x4) ) 1532))
(assert (<= (+ (* 6 x1) (* 8 x2) (* 1 x3) (* (- 6) x4) ) 1315))
(assert (<= (+ (* (- 8) x1) (* (- 9) x2) (* 0 x3) (* (- 3) x4) ) 1265))
(assert (<= (+ (* (- 4) x1) (* (- 1) x2) (* (- 7) x3) (* 0 x4) ) (- 2274)))
(assert (<= (+ (* 7 x1) (* (- 1) x2) (* (- 2) x3) (* (- 3) x4) ) 1441))
(assert (<= (+ (* 6 x1) (* (- 1) x2) (* 2 x3) (* (- 5) x4) ) 385))
(assert (<= (+ (* 3 x1) (* 9 x2) (* (- 8) x3) (* (- 3) x4) ) 1799))
(assert (<= (+ (* 9 x1) (* (- 8) x2) (* (- 4) x3) (* 0 x4) ) 2899))
(assert (<= (+ (* 1 x1) (* 0 x2) (* 0 x3) (* 0 x4) ) 3162))
(assert (<= (+ (* (- 1) x1) (* 0 x2) (* 0 x3) (* 0 x4) ) 3162))
(assert (<= (+ (* 0 x1) (* 1 x2) (* 0 x3) (* 0 x4) ) 3162))
(assert (<= (+ (* 0 x1) (* (- 1) x2) (* 0 x3) (* 0 x4) ) 3162))
(assert (<= (+ (* 0 x1) (* 0 x2) (* 1 x3) (* 0 x4) ) 3162))
(assert (<= (+ (* 0 x1) (* 0 x2) (* (- 1) x3) (* 0 x4) ) 3162))
(assert (<= (+ (* 0 x1) (* 0 x2) (* 0 x3) (* 1 x4) ) 3162))
(assert (<= (+ (* 0 x1) (* 0 x2) (* 0 x3) (* (- 1) x4) ) 3162))
